8 45 46 48 72 47 16 97 0 12 41 5 78 86 84 70 17 38 99 11 22 53 49 30 82 98 94 40 62 96 64 90 9 58 91 69 34 60 1 43 3 37 71 32 51 68 65 42 31 85 27 95 80 4 89 57 39 59 36 52 19 35 54 55 24 20 79 25 88 83 14 73 28 29 87 81 56 21 7 74 92 26 76 61 10 18 23 63 67 93 6 77 44 50 2 15 33 75 13 66